bomb.14.tsp
NAME : GeneratedProblem
COMMENT : SVGCrosshatch
TYPE : TSP
DIMENSION : 9
EDGE_WEIGHT_TYPE : EUC_2D
NODE_COORD_SECTION
1 2300 8600
2 2400 8600
3 2500 8000
4 2500 8200
5 2500 8600
6 2600 8100
7 2700 8200
8 2700 8500
9 3300 6700
EOF
