bomb.14.out.txt
NAME : GeneratedProblem.4595.tour
COMMENT : Length = 4595
COMMENT : Found by LKH [Keld Helsgaun] Sat Nov 24 14:17:56 2018
TYPE : TOUR
DIMENSION : 9
TOUR_SECTION
1
2
5
8
7
9
3
6
4
-1
EOF
